words_hard_train/1131.qaiger
aag 117 16 0 1 101
2
4
8
12
16
20
24
28
36
44
46
50
52
58
62
66
235
6 3 5
10 6 9
14 10 13
18 14 17
22 18 21
26 22 25
30 26 29
32 27 28
34 31 33
38 12 36
40 13 37
42 39 41
48 45 47
54 51 53
56 48 54
60 56 59
64 60 63
68 64 67
70 42 69
72 43 68
74 71 73
76 57 58
78 77 61
80 78 2
82 61 62
84 83 65
86 85 5
88 84 4
90 87 89
92 80 90
94 93 89
96 65 66
98 97 69
100 99 9
102 98 8
104 101 103
106 95 104
108 107 103
110 75 109
112 74 108
114 111 113
116 34 114
118 19 20
120 119 23
122 79 3
124 123 81
126 124 57
128 125 56
130 127 129
132 7 8
134 133 11
136 134 44
138 11 12
140 139 15
142 140 46
144 137 143
146 4 53
148 147 7
150 135 45
152 148 151
154 2 51
156 5 52
158 154 157
160 152 159
162 144 161
164 141 47
166 163 165
168 15 16
170 169 19
172 166 170
174 131 173
176 167 171
178 175 177
180 81 91
182 181 93
184 129 182
186 128 183
188 185 187
190 178 188
192 121 191
194 179 189
196 193 195
198 23 24
200 199 27
202 94 105
204 203 107
206 187 204
208 186 205
210 207 209
212 200 210
214 197 213
216 201 211
218 215 217
220 218 208
222 116 221
224 35 115
226 220 224
228 223 227
230 219 225
232 230 209
234 228 233
i0 1 x2[0]
i1 1 x2[1]
i2 1 x2[2]
i3 1 x2[3]
i4 1 x2[4]
i5 1 x2[5]
i6 1 x2[6]
i7 1 x2[7]
i8 2 y1[0]
i9 2 y1[5]
i10 2 y1[4]
i11 2 y1[7]
i12 2 y1[6]
i13 2 y1[3]
i14 2 y1[2]
i15 2 y1[1]
o0 bv[0]
c
simplified
  <
    unary minus
      1 x2
    subtract
      << 4
        1 x2
      reverse
        2 y1
