words_hard_train/1131.qaiger.qdimacs
p cnf 117 304
a 1 2 4 6 8 10 12 14 0
e 3 5 7 9 11 13 15 16 17 18 19 20 21 22 23 24 25 26 27 28 29 30 31 32 33 34 35 36 37 38 39 40 41 42 43 44 45 46 47 48 49 50 51 52 53 54 55 56 57 58 59 60 61 62 63 64 65 66 67 68 69 70 71 72 73 74 75 76 77 78 79 80 81 82 83 84 85 86 87 88 89 90 91 92 93 94 95 96 97 98 99 100 101 102 103 104 105 106 107 108 109 110 111 112 113 114 115 116 117 0
1 2 3 0
-1 -3 0
-2 -3 0
-3 4 5 0
3 -5 0
-4 -5 0
-5 6 7 0
5 -7 0
-6 -7 0
-7 8 9 0
7 -9 0
-8 -9 0
-9 10 11 0
9 -11 0
-10 -11 0
-11 12 13 0
11 -13 0
-12 -13 0
-13 14 15 0
13 -15 0
-14 -15 0
13 -14 16 0
-13 -16 0
14 -16 0
15 16 17 0
-15 -17 0
-16 -17 0
-6 -18 19 0
6 -19 0
18 -19 0
6 18 20 0
-6 -20 0
-18 -20 0
19 20 21 0
-19 -21 0
-20 -21 0
22 23 24 0
-22 -24 0
-23 -24 0
25 26 27 0
-25 -27 0
-26 -27 0
-24 -27 28 0
24 -28 0
27 -28 0
-28 29 30 0
28 -30 0
-29 -30 0
-30 31 32 0
30 -32 0
-31 -32 0
-32 33 34 0
32 -34 0
-33 -34 0
-21 34 35 0
21 -35 0
-34 -35 0
21 -34 36 0
-21 -36 0
34 -36 0
35 36 37 0
-35 -37 0
-36 -37 0
28 -29 38 0
-28 -38 0
29 -38 0
38 30 39 0
-38 -39 0
-30 -39 0
-39 -1 40 0
39 -40 0
1 -40 0
30 -31 41 0
-30 -41 0
31 -41 0
41 32 42 0
-41 -42 0
-32 -42 0
42 2 43 0
-42 -43 0
-2 -43 0
-42 -2 44 0
42 -44 0
2 -44 0
43 44 45 0
-43 -45 0
-44 -45 0
-40 -45 46 0
40 -46 0
45 -46 0
46 44 47 0
-46 -47 0
-44 -47 0
32 -33 48 0
-32 -48 0
33 -48 0
48 34 49 0
-48 -49 0
-34 -49 0
49 4 50 0
-49 -50 0
-4 -50 0
-49 -4 51 0
49 -51 0
4 -51 0
50 51 52 0
-50 -52 0
-51 -52 0
47 -52 53 0
-47 -53 0
52 -53 0
53 51 54 0
-53 -54 0
-51 -54 0
37 54 55 0
-37 -55 0
-54 -55 0
-37 -54 56 0
37 -56 0
54 -56 0
55 56 57 0
-55 -57 0
-56 -57 0
-17 -57 58 0
17 -58 0
57 -58 0
9 -10 59 0
-9 -59 0
10 -59 0
59 11 60 0
-59 -60 0
-11 -60 0
39 1 61 0
-39 -61 0
-1 -61 0
61 40 62 0
-61 -62 0
-40 -62 0
-62 28 63 0
62 -63 0
-28 -63 0
62 -28 64 0
-62 -64 0
28 -64 0
63 64 65 0
-63 -65 0
-64 -65 0
3 -4 66 0
-3 -66 0
4 -66 0
66 5 67 0
-66 -67 0
-5 -67 0
-67 -22 68 0
67 -68 0
22 -68 0
5 -6 69 0
-5 -69 0
6 -69 0
69 7 70 0
-69 -70 0
-7 -70 0
-70 -23 71 0
70 -71 0
23 -71 0
68 71 72 0
-68 -72 0
-71 -72 0
-2 26 73 0
2 -73 0
-26 -73 0
73 3 74 0
-73 -74 0
-3 -74 0
67 22 75 0
-67 -75 0
-22 -75 0
-74 75 76 0
74 -76 0
-75 -76 0
-1 25 77 0
1 -77 0
-25 -77 0
2 -26 78 0
-2 -78 0
26 -78 0
-77 78 79 0
77 -79 0
-78 -79 0
-76 79 80 0
76 -80 0
-79 -80 0
-72 80 81 0
72 -81 0
-80 -81 0
70 23 82 0
-70 -82 0
-23 -82 0
81 82 83 0
-81 -83 0
-82 -83 0
7 -8 84 0
-7 -84 0
8 -84 0
84 9 85 0
-84 -85 0
-9 -85 0
-83 -85 86 0
83 -86 0
85 -86 0
65 86 87 0
-65 -87 0
-86 -87 0
83 85 88 0
-83 -88 0
-85 -88 0
87 88 89 0
-87 -89 0
-88 -89 0
40 45 90 0
-40 -90 0
-45 -90 0
90 46 91 0
-90 -91 0
-46 -91 0
64 -91 92 0
-64 -92 0
91 -92 0
-64 91 93 0
64 -93 0
-91 -93 0
92 93 94 0
-92 -94 0
-93 -94 0
-89 -94 95 0
89 -95 0
94 -95 0
60 95 96 0
-60 -96 0
-95 -96 0
89 94 97 0
-89 -97 0
-94 -97 0
96 97 98 0
-96 -98 0
-97 -98 0
11 -12 99 0
-11 -99 0
12 -99 0
99 13 100 0
-99 -100 0
-13 -100 0
-47 52 101 0
47 -101 0
-52 -101 0
101 53 102 0
-101 -102 0
-53 -102 0
93 -102 103 0
-93 -103 0
102 -103 0
-93 102 104 0
93 -104 0
-102 -104 0
103 104 105 0
-103 -105 0
-104 -105 0
-100 -105 106 0
100 -106 0
105 -106 0
98 106 107 0
-98 -107 0
-106 -107 0
100 105 108 0
-100 -108 0
-105 -108 0
107 108 109 0
-107 -109 0
-108 -109 0
-109 -104 110 0
109 -110 0
104 -110 0
-58 110 111 0
58 -111 0
-110 -111 0
17 57 112 0
-17 -112 0
-57 -112 0
-110 -112 113 0
110 -113 0
112 -113 0
111 113 114 0
-111 -114 0
-113 -114 0
109 112 115 0
-109 -115 0
-112 -115 0
-115 104 116 0
115 -116 0
-104 -116 0
-114 116 117 0
114 -117 0
-116 -117 0
-117 0
